53027
0 1 1 1 1 1 0 1 1 1 1 1 1 1 1 1 1 1 0 1 1 0 1 1 1 1 1 1 1 1
19 20 1 15 9 3 8 3 24 5 9 4 10 12 9 2 7 16 16 20 16 16 4 19 17 9 7 22 3 16 4 5 7 3 2 16 7 24 5 10 1 12 12 1 20 22 3 5 22 19 17 14 24 4 17 4 5 5 14 15 17 27 13 25 15 24 5 14 9 10 19 3 2 8 5 15 16 11 3 14 5 12 11 23 20 5 15 2 24 15 9 29 27 27 29 17 20 10 11 3 29 9 19 11 27 7 1 23 13 9 25 17 29 1 7 11 20 8 11 2 15 10 10 13 28 15 14 20 5 2 23 8 12 9 16 26 5 23 14 1 2 17 19 11 11 19 1 8 11 9 8 11 1 22 4 25 5 24 12 17 23 20 19 17 26 13 2 5 19 23 2 14 24 20 23 7 2 14 27 4 26 4 28 22 28 11 29 1 28 29 16 8 26 20 8 10 4 1 27 8